c CNF file generated from BLIF2CNF script.
c Original BLIF file was blif/tav.blif
p cnf 52 121
-1 -3 0
3 1  0
-3 2 0
-2 3  0
-4 -6 0
6 4  0
-6 5 0
-5 6  0
-7 -9 0
9 7  0
-9 8 0
-8 9  0
-10 -12 0
12 10  0
-12 11 0
-11 12  0
-13 -15 0
15 13  0
-15 14 0
-14 15  0
-16 -18 0
18 16  0
-18 17 0
-17 18  0
-19 -24 0
20 -24 0
-21 -24 0
-22 -24 0
24 19 -20 21 22  0
-24 23 0
-23 24  0
-19 -26 0
-20 -26 0
21 -26 0
-22 -26 0
26 19 20 -21 22  0
-26 25 0
-25 26  0
19 -28 0
-20 -28 0
-21 -28 0
-22 -28 0
28 -19 20 21 22  0
-28 27 0
-27 28  0
-19 -30 0
-20 -30 0
-21 -30 0
22 -30 0
30 19 20 21 -22  0
-30 29 0
-29 30  0
20 -34 0
-21 -34 0
31 -34 0
32 -34 0
34 -20 21 -31 -32  0
-34 33 0
-33 34  0
-20 -36 0
21 -36 0
31 -36 0
32 -36 0
36 20 -21 -31 -32  0
-36 35 0
-35 36  0
19 -38 0
31 -38 0
32 -38 0
38 -19 -31 -32  0
-38 37 0
-37 38  0
22 -40 0
31 -40 0
32 -40 0
40 -22 -31 -32  0
-40 39 0
-39 40  0
-31 -42 0
-32 -42 0
42 31 32  0
-42 41 0
-41 42  0
31 -44 0
32 -44 0
44 -31 -32  0
-44 43 0
-43 44  0
-31 -46 0
46 31  0
-46 45 0
-45 46  0
-45 -47 0
47 45  0
-47 13 0
-13 47  0
-41 -48 0
-43 -48 0
48 41 43  0
-48 16 0
-16 48  0
-27 -49 0
-37 -49 0
49 27 37  0
-49 1 0
-1 49  0
-23 -50 0
-33 -50 0
50 23 33  0
-50 4 0
-4 50  0
-25 -51 0
-35 -51 0
51 25 35  0
-51 7 0
-7 51  0
-29 -52 0
-39 -52 0
52 29 39  0
-52 10 0
-10 52  0
